p tw 20 63
1 2
1 11
1 12
1 13
1 17
1 18
1 7
1 9
2 11
2 13
2 14
2 17
2 20
2 8
11 15
12 14
12 16
12 19
15 20
16 20
17 20
18 19
19 20
3 11
3 12
3 14
3 15
3 16
3 17
3 18
3 19
3 20
3 4
3 9
3 10
4 16
5 11
5 18
5 7
6 11
6 12
6 14
6 17
6 18
6 19
6 7
6 8
6 9
7 11
7 14
7 17
7 18
7 20
8 11
8 17
8 19
8 10
9 11
9 14
9 20
10 11
10 18
10 20
